# Solution for model problem_
# Objective value = 2.5045977243961708e+05
x(0_0) 0
x(0_1) 0
x(0_2) 1
x(0_3) 0
x(0_4) 0
x(0_5) 0
x(0_6) 0
x(0_7) 0
x(0_8) 0
x(0_9) 0
x(0_10) 0
x(0_11) 0
x(0_12) 0
x(0_13) 0
x(0_14) 0
x(0_15) 0
x(0_16) 0
x(0_17) 0
x(1_18) 0
x(1_19) 0
x(1_20) 0
x(1_21) 1
x(1_22) 0
x(1_23) 0
x(1_24) 0
x(1_25) 0
x(1_26) 0
x(1_27) 0
x(2_28) 0
x(2_29) 0
x(2_30) 0
x(2_31) 0
x(2_32) 0
x(2_33) 0
x(2_34) 0
x(2_35) 0
x(2_36) 0
x(2_37) 0
x(2_38) 1
x(2_39) 0
x(2_40) 0
x(2_41) 0
x(2_42) 0
x(2_43) 0
x(2_44) 0
x(3_45) 0
x(3_46) 0
x(3_47) 1
x(3_48) 0
x(3_49) 0
x(3_50) 0
x(3_51) 0
x(3_52) 0
x(3_53) 0
x(3_54) 0
x(4_55) 0
x(4_56) 0
x(4_57) 1
x(4_58) 0
x(4_59) 0
x(4_60) 0
x(4_61) 0
x(4_62) 0
x(4_63) 0
x(4_64) 0
x(5_65) 0
x(5_66) 0
x(5_67) 0
x(5_68) 0
x(5_69) 0
x(5_70) 0
x(5_71) 0
x(5_72) 0
x(5_73) 0
x(5_74) 0
x(5_75) 1
x(5_76) 0
x(5_77) 0
x(5_78) 0
x(5_79) 0
x(5_80) 0
x(6_81) 0
x(6_82) 0
x(6_83) 0
x(6_84) 0
x(6_85) 1
x(6_86) 0
x(6_87) 0
x(6_88) 0
x(6_89) 0
x(6_90) 0
x(7_91) 0
x(7_92) 0
x(7_93) 0
x(7_94) 0
x(7_95) 0
x(7_96) 0
x(7_97) 0
x(7_98) 1
x(7_99) 0
x(7_100) 0
x(7_101) 0
x(8_102) 0
x(8_103) 0
x(8_104) 0
x(8_105) 0
x(8_106) 0
x(8_107) 0
x(8_108) 1
x(8_109) 0
x(8_110) 0
x(8_111) 0
x(9_112) 0
x(9_113) 0
x(9_114) 0
x(9_115) 1
x(9_116) 0
x(9_117) 0
x(9_118) 0
x(9_119) 0
x(9_120) 0
x(9_121) 0
x(9_122) 0
x(9_123) 0
x(9_124) 0
x(9_125) 0
x(9_126) 0
x(9_127) 0
x(10_128) 0
x(10_129) 1
x(10_130) 0
x(10_131) 0
x(10_132) 0
x(10_133) 0
x(10_134) 0
x(10_135) 0
x(10_136) 0
x(10_137) 0
x(10_138) 0
x(10_139) 0
x(11_140) 0
x(11_141) 0
x(11_142) 0
x(11_143) 0
x(11_144) 0
x(11_145) 0
x(11_146) 0
x(11_147) 0
x(11_148) 0
x(11_149) 0
x(11_150) 0
x(11_151) 0
x(11_152) 0
x(11_153) 0
x(11_154) 0
x(11_155) 0
x(11_156) 1
x(11_157) 0
x(12_158) 0
x(12_159) 0
x(12_160) 0
x(12_161) 0
x(12_162) 0
x(12_163) 0
x(12_164) 0
x(12_165) 0
x(12_166) 0
x(12_167) 0
x(12_168) 0
x(12_169) 0
x(12_170) 0
x(12_171) 1
x(12_172) 0
x(13_173) 0
x(13_174) 0
x(13_175) 0
x(13_176) 0
x(13_177) 0
x(13_178) 0
x(13_179) 0
x(13_180) 0
x(13_181) 0
x(13_182) 0
x(13_183) 1
x(13_184) 0
x(13_185) 0
x(13_186) 0
x(13_187) 0
x(13_188) 0
x(13_189) 0
x(14_190) 0
x(14_191) 0
x(14_192) 0
x(14_193) 0
x(14_194) 0
x(14_195) 0
x(14_196) 1
x(14_197) 0
x(14_198) 0
x(14_199) 0
x(14_200) 0
x(15_201) 0
x(15_202) 0
x(15_203) 0
x(15_204) 1
x(15_205) 0
x(15_206) 0
x(15_207) 0
x(15_208) 0
x(15_209) 0
x(15_210) 0
x(15_211) 0
x(16_212) 0
x(16_213) 0
x(16_214) 0
x(16_215) 0
x(16_216) 0
x(16_217) 0
x(16_218) 0
x(16_219) 0
x(16_220) 1
x(16_221) 0
x(16_222) 0
x(16_223) 0
x(16_224) 0
x(16_225) 0
x(16_226) 0
x(16_227) 0
x(16_228) 0
x(16_229) 0
x(16_230) 0
x(17_231) 0
x(17_232) 0
x(17_233) 0
x(17_234) 0
x(17_235) 0
x(17_236) 0
x(17_237) 0
x(17_238) 0
x(17_239) 0
x(17_240) 0
x(17_241) 0
x(17_242) 0
x(17_243) 0
x(17_244) 0
x(17_245) 0
x(17_246) 0
x(17_247) 0
x(17_248) 1
x(18_249) 0
x(18_250) 0
x(18_251) 0
x(18_252) 0
x(18_253) 0
x(18_254) 0
x(18_255) 0
x(18_256) 0
x(18_257) 0
x(18_258) 1
x(18_259) 0
x(19_260) 0
x(19_261) 0
x(19_262) 0
x(19_263) 0
x(19_264) 0
x(19_265) 0
x(19_266) 1
x(19_267) 0
x(19_268) 0
x(19_269) 0
x(19_270) 0
x(19_271) 0
x(19_272) 0
x(19_273) 0
x(19_274) 0
x(20_275) 0
x(20_276) 0
x(20_277) 0
x(20_278) 0
x(20_279) 0
x(20_280) 0
x(20_281) 0
x(20_282) 0
x(20_283) 0
x(20_284) 0
x(20_285) 0
x(20_286) 0
x(20_287) 1
x(21_288) 0
x(21_289) 1
x(21_290) 0
x(21_291) 0
x(21_292) 0
x(21_293) 0
x(21_294) 0
x(21_295) 0
x(21_296) 0
x(21_297) 0
x(21_298) 0
x(21_299) 0
x(21_300) 0
x(21_301) 0
x(21_302) 0
x(22_303) 0
x(22_304) 0
x(22_305) 0
x(22_306) 0
x(22_307) 0
x(22_308) 0
x(22_309) 0
x(22_310) 0
x(22_311) 0
x(22_312) 0
x(22_313) 0
x(22_314) 0
x(22_315) 0
x(22_316) 0
x(22_317) 0
x(22_318) 0
x(22_319) 1
x(22_320) 0
x(23_321) 1
x(23_322) 0
x(23_323) 0
x(23_324) 0
x(23_325) 0
x(23_326) 0
x(23_327) 0
x(23_328) 0
x(23_329) 0
x(23_330) 0
x(23_331) 0
x(24_332) 0
x(24_333) 0
x(24_334) 0
x(24_335) 0
x(24_336) 0
x(24_337) 1
x(24_338) 0
x(24_339) 0
x(24_340) 0
x(24_341) 0
x(24_342) 0
x(24_343) 0
x(25_344) 0
x(25_345) 0
x(25_346) 0
x(25_347) 0
x(25_348) 1
x(25_349) 0
x(25_350) 0
x(25_351) 0
x(25_352) 0
x(25_353) 0
x(25_354) 0
x(25_355) 0
x(25_356) 0
x(25_357) 0
x(25_358) 0
x(25_359) 0
x(25_360) 0
x(25_361) 0
x(25_362) 0
x(26_363) 0
x(26_364) 0
x(26_365) 0
x(26_366) 0
x(26_367) 0
x(26_368) 0
x(26_369) 0
x(26_370) 0
x(26_371) 1
x(26_372) 0
x(26_373) 0
x(26_374) 0
x(27_375) 0
x(27_376) 0
x(27_377) 0
x(27_378) 0
x(27_379) 0
x(27_380) 0
x(27_381) 0
x(27_382) 0
x(27_383) 0
x(27_384) 0
x(27_385) 0
x(27_386) 0
x(27_387) 1
x(27_388) 0
x(27_389) 0
x(27_390) 0
x(27_391) 0
x(28_392) 0
x(28_393) 0
x(28_394) 0
x(28_395) 0
x(28_396) 0
x(28_397) 0
x(28_398) 0
x(28_399) 0
x(28_400) 0
x(28_401) 0
x(28_402) 0
x(28_403) 0
x(28_404) 0
x(28_405) 1
x(29_406) 0
x(29_407) 0
x(29_408) 0
x(29_409) 0
x(29_410) 0
x(29_411) 0
x(29_412) 0
x(29_413) 0
x(29_414) 0
x(29_415) 0
x(29_416) 1
x(29_417) 0
x(30_418) 0
x(30_419) 0
x(30_420) 0
x(30_421) 0
x(30_422) 0
x(30_423) 0
x(30_424) 1
x(30_425) 0
x(30_426) 0
x(30_427) 0
x(30_428) 0
x(30_429) 0
x(30_430) 0
x(30_431) 0
x(30_432) 0
x(30_433) 0
x(31_434) 0
x(31_435) 0
x(31_436) 0
x(31_437) 0
x(31_438) 0
x(31_439) 0
x(31_440) 1
x(31_441) 0
x(31_442) 0
x(31_443) 0
x(31_444) 0
x(31_445) 0
x(32_446) 1
x(32_447) 0
x(32_448) 0
x(32_449) 0
x(32_450) 0
x(32_451) 0
x(32_452) 0
x(32_453) 0
x(32_454) 0
x(32_455) 0
x(32_456) 0
x(32_457) 0
x(32_458) 0
x(32_459) 0
x(32_460) 0
x(32_461) 0
x(32_462) 0
x(32_463) 0
x(32_464) 0
x(32_465) 0
x(33_466) 0
x(33_467) 0
x(33_468) 0
x(33_469) 0
x(33_470) 0
x(33_471) 0
x(33_472) 0
x(33_473) 0
x(33_474) 0
x(33_475) 0
x(33_476) 0
x(33_477) 0
x(33_478) 0
x(33_479) 1
x(33_480) 0
x(33_481) 0
x(33_482) 0
x(33_483) 0
x(34_484) 0
x(34_485) 0
x(34_486) 0
x(34_487) 1
x(34_488) 0
x(34_489) 0
x(34_490) 0
x(34_491) 0
x(34_492) 0
x(34_493) 0
x(35_494) 0
x(35_495) 0
x(35_496) 0
x(35_497) 0
x(35_498) 0
x(35_499) 0
x(35_500) 0
x(35_501) 1
x(35_502) 0
x(35_503) 0
x(35_504) 0
x(35_505) 0
x(35_506) 0
x(35_507) 0
x(36_508) 0
x(36_509) 0
x(36_510) 0
x(36_511) 0
x(36_512) 0
x(36_513) 0
x(36_514) 0
x(36_515) 0
x(36_516) 0
x(36_517) 0
x(36_518) 0
x(36_519) 1
x(36_520) 0
x(37_521) 0
x(37_522) 1
x(37_523) 0
x(37_524) 0
x(37_525) 0
x(37_526) 0
x(37_527) 0
x(37_528) 0
x(37_529) 0
x(37_530) 0
x(37_531) 0
x(38_532) 0
x(38_533) 0
x(38_534) 0
x(38_535) 0
x(38_536) 0
x(38_537) 0
x(38_538) 0
x(38_539) 0
x(38_540) 0
x(38_541) 0
x(38_542) 0
x(38_543) 1
x(38_544) 0
x(38_545) 0
x(38_546) 0
x(38_547) 0
x(38_548) 0
x(39_549) 0
x(39_550) 0
x(39_551) 0
x(39_552) 0
x(39_553) 0
x(39_554) 0
x(39_555) 0
x(39_556) 0
x(39_557) 0
x(39_558) 0
x(39_559) 1
x(40_560) 0
x(40_561) 0
x(40_562) 0
x(40_563) 0
x(40_564) 0
x(40_565) 0
x(40_566) 0
x(40_567) 1
x(40_568) 0
x(40_569) 0
x(40_570) 0
x(41_571) 0
x(41_572) 1
x(41_573) 0
x(41_574) 0
x(41_575) 0
x(41_576) 0
x(41_577) 0
x(41_578) 0
x(41_579) 0
x(41_580) 0
x(41_581) 0
x(41_582) 0
x(41_583) 0
x(41_584) 0
x(41_585) 0
x(42_586) 0
x(42_587) 0
x(42_588) 0
x(42_589) 0
x(42_590) 0
x(42_591) 0
x(42_592) 1
x(42_593) 0
x(42_594) 0
x(42_595) 0
x(42_596) 0
x(42_597) 0
x(42_598) 0
x(42_599) 0
x(42_600) 0
x(42_601) 0
x(43_602) 0
x(43_603) 1
x(43_604) 0
x(43_605) 0
x(43_606) 0
x(43_607) 0
x(43_608) 0
x(43_609) 0
x(43_610) 0
x(43_611) 0
x(43_612) 0
x(43_613) 0
x(44_614) 0
x(44_615) 0
x(44_616) 1
x(44_617) 0
x(44_618) 0
x(44_619) 0
x(44_620) 0
x(44_621) 0
x(44_622) 0
x(44_623) 0
x(44_624) 0
x(44_625) 0
x(45_626) 0
x(45_627) 0
x(45_628) 0
x(45_629) 1
x(45_630) 0
x(45_631) 0
x(45_632) 0
x(45_633) 0
x(45_634) 0
x(45_635) 0
x(45_636) 0
x(45_637) 0
x(45_638) 0
x(45_639) 0
x(45_640) 0
x(46_641) 0
x(46_642) 0
x(46_643) 1
x(46_644) 0
x(46_645) 0
x(46_646) 0
x(46_647) 0
x(46_648) 0
x(46_649) 0
x(46_650) 0
x(47_651) 0
x(47_652) 0
x(47_653) 0
x(47_654) 0
x(47_655) 0
x(47_656) 0
x(47_657) 0
x(47_658) 0
x(47_659) 1
x(47_660) 0
x(47_661) 0
x(47_662) 0
x(47_663) 0
x(47_664) 0
x(48_665) 0
x(48_666) 0
x(48_667) 0
x(48_668) 0
x(48_669) 0
x(48_670) 0
x(48_671) 0
x(48_672) 1
x(48_673) 0
x(48_674) 0
x(49_675) 0
x(49_676) 0
x(49_677) 0
x(49_678) 0
x(49_679) 0
x(49_680) 0
x(49_681) 0
x(49_682) 1
x(49_683) 0
x(49_684) 0
x(49_685) 0
x(49_686) 0
x(49_687) 0
x(49_688) 0
x(49_689) 0
x(50_690) 0
x(50_691) 0
x(50_692) 0
x(50_693) 0
x(50_694) 0
x(50_695) 0
x(50_696) 0
x(50_697) 0
x(50_698) 0
x(50_699) 0
x(50_700) 0
x(50_701) 0
x(50_702) 0
x(50_703) 1
x(50_704) 0
x(50_705) 0
x(50_706) 0
x(50_707) 0
x(50_708) 0
x(51_709) 0
x(51_710) 0
x(51_711) 0
x(51_712) 0
x(51_713) 1
x(51_714) 0
x(51_715) 0
x(51_716) 0
x(51_717) 0
x(51_718) 0
x(51_719) 0
x(51_720) 0
x(51_721) 0
x(51_722) 0
x(51_723) 0
x(51_724) 0
x(52_725) 0
x(52_726) 0
x(52_727) 0
x(52_728) 0
x(52_729) 0
x(52_730) 1
x(52_731) 0
x(52_732) 0
x(52_733) 0
x(52_734) 0
x(53_735) 0
x(53_736) 0
x(53_737) 0
x(53_738) 0
x(53_739) 0
x(53_740) 0
x(53_741) 0
x(53_742) 0
x(53_743) 1
x(53_744) 0
x(53_745) 0
x(53_746) 0
x(53_747) 0
x(53_748) 0
x(54_749) 0
x(54_750) 0
x(54_751) 0
x(54_752) 0
x(54_753) 0
x(54_754) 0
x(54_755) 0
x(54_756) 1
x(54_757) 0
x(54_758) 0
x(54_759) 0
x(54_760) 0
x(54_761) 0
x(54_762) 0
x(54_763) 0
x(54_764) 0
x(54_765) 0
x(54_766) 0
x(55_767) 0
x(55_768) 0
x(55_769) 0
x(55_770) 0
x(55_771) 0
x(55_772) 0
x(55_773) 0
x(55_774) 0
x(55_775) 0
x(55_776) 1
x(56_777) 0
x(56_778) 0
x(56_779) 0
x(56_780) 1
x(56_781) 0
x(56_782) 0
x(56_783) 0
x(56_784) 0
x(56_785) 0
x(56_786) 0
x(56_787) 0
x(56_788) 0
x(56_789) 0
x(56_790) 0
x(56_791) 0
x(56_792) 0
x(56_793) 0
x(56_794) 0
x(56_795) 0
x(56_796) 0
x(57_797) 0
x(57_798) 0
x(57_799) 0
x(57_800) 0
x(57_801) 0
x(57_802) 1
x(57_803) 0
x(57_804) 0
x(57_805) 0
x(57_806) 0
x(57_807) 0
x(57_808) 0
x(57_809) 0
x(57_810) 0
x(57_811) 0
x(57_812) 0
x(57_813) 0
x(57_814) 0
x(57_815) 0
x(57_816) 0
x(58_817) 0
x(58_818) 0
x(58_819) 0
x(58_820) 0
x(58_821) 0
x(58_822) 0
x(58_823) 0
x(58_824) 0
x(58_825) 0
x(58_826) 0
x(58_827) 0
x(58_828) 1
x(58_829) 0
x(58_830) 0
x(58_831) 0
x(58_832) 0
x(59_833) 0
x(59_834) 0
x(59_835) 0
x(59_836) 0
x(59_837) 0
x(59_838) 0
x(59_839) 0
x(59_840) 0
x(59_841) 1
x(59_842) 0
x(59_843) 0
x(59_844) 0
x(59_845) 0
x(59_846) 0
x(59_847) 0
x(59_848) 0
x(59_849) 0
x(59_850) 0
x(60_851) 1
x(60_852) 0
x(60_853) 0
x(60_854) 0
x(60_855) 0
x(60_856) 0
x(60_857) 0
x(60_858) 0
x(60_859) 0
x(60_860) 0
x(60_861) 0
x(61_862) 0
x(61_863) 0
x(61_864) 0
x(61_865) 0
x(61_866) 0
x(61_867) 0
x(61_868) 0
x(61_869) 0
x(61_870) 0
x(61_871) 0
x(61_872) 0
x(61_873) 1
x(61_874) 0
x(61_875) 0
x(62_876) 0
x(62_877) 0
x(62_878) 0
x(62_879) 1
x(62_880) 0
x(62_881) 0
x(62_882) 0
x(62_883) 0
x(62_884) 0
x(62_885) 0
x(62_886) 0
x(62_887) 0
x(63_888) 0
x(63_889) 0
x(63_890) 0
x(63_891) 0
x(63_892) 0
x(63_893) 0
x(63_894) 1
x(63_895) 0
x(63_896) 0
x(63_897) 0
x(64_898) 0
x(64_899) 0
x(64_900) 0
x(64_901) 0
x(64_902) 0
x(64_903) 0
x(64_904) 0
x(64_905) 0
x(64_906) 0
x(64_907) 0
x(64_908) 0
x(64_909) 1
x(64_910) 0
x(64_911) 0
x(64_912) 0
x(64_913) 0
x(65_914) 0
x(65_915) 0
x(65_916) 0
x(65_917) 0
x(65_918) 0
x(65_919) 0
x(65_920) 1
x(65_921) 0
x(65_922) 0
x(65_923) 0
x(65_924) 0
x(65_925) 0
x(65_926) 0
x(65_927) 0
x(66_928) 1
x(66_929) 0
x(66_930) 0
x(66_931) 0
x(66_932) 0
x(66_933) 0
x(66_934) 0
x(66_935) 0
x(66_936) 0
x(66_937) 0
x(66_938) 0
x(66_939) 0
x(66_940) 0
x(66_941) 0
x(66_942) 0
x(66_943) 0
x(66_944) 0
x(66_945) 0
x(66_946) 0
x(67_947) 0
x(67_948) 0
x(67_949) 1
x(67_950) 0
x(67_951) 0
x(67_952) 0
x(67_953) 0
x(67_954) 0
x(67_955) 0
x(67_956) 0
x(67_957) 0
x(67_958) 0
x(68_959) 0
x(68_960) 0
x(68_961) 0
x(68_962) 0
x(68_963) 0
x(68_964) 1
x(68_965) 0
x(68_966) 0
x(68_967) 0
x(68_968) 0
x(68_969) 0
x(68_970) 0
x(68_971) 0
x(68_972) 0
x(68_973) 0
x(68_974) 0
x(68_975) 0
x(68_976) 0
x(69_977) 1
x(69_978) 0
x(69_979) 0
x(69_980) 0
x(69_981) 0
x(69_982) 0
x(69_983) 0
x(69_984) 0
x(69_985) 0
x(69_986) 0
x(70_987) 0
x(70_988) 0
x(70_989) 0
x(70_990) 1
x(70_991) 0
x(70_992) 0
x(70_993) 0
x(70_994) 0
x(70_995) 0
x(70_996) 0
x(71_997) 1
x(71_998) 0
x(71_999) 0
x(71_1000) 0
x(71_1001) 0
x(71_1002) 0
x(71_1003) 0
x(71_1004) 0
x(71_1005) 0
x(71_1006) 0
x(71_1007) 0
x(71_1008) 0
x(71_1009) 0
x(71_1010) 0
x(72_1011) 0
x(72_1012) 0
x(72_1013) 0
x(72_1014) 0
x(72_1015) 0
x(72_1016) 0
x(72_1017) 0
x(72_1018) 0
x(72_1019) 0
x(72_1020) 0
x(72_1021) 1
x(72_1022) 0
x(72_1023) 0
x(73_1024) 0
x(73_1025) 0
x(73_1026) 0
x(73_1027) 0
x(73_1028) 0
x(73_1029) 0
x(73_1030) 1
x(73_1031) 0
x(73_1032) 0
x(73_1033) 0
x(73_1034) 0
x(73_1035) 0
x(73_1036) 0
x(73_1037) 0
x(73_1038) 0
x(73_1039) 0
x(73_1040) 0
x(74_1041) 0
x(74_1042) 0
x(74_1043) 0
x(74_1044) 0
x(74_1045) 0
x(74_1046) 0
x(74_1047) 0
x(74_1048) 0
x(74_1049) 0
x(74_1050) 0
x(74_1051) 1
x(74_1052) 0
x(74_1053) 0
x(74_1054) 0
x(75_1055) 0
x(75_1056) 0
x(75_1057) 0
x(75_1058) 1
x(75_1059) 0
x(75_1060) 0
x(75_1061) 0
x(75_1062) 0
x(75_1063) 0
x(75_1064) 0
x(75_1065) 0
x(76_1066) 0
x(76_1067) 0
x(76_1068) 0
x(76_1069) 0
x(76_1070) 0
x(76_1071) 0
x(76_1072) 0
x(76_1073) 0
x(76_1074) 0
x(76_1075) 1
x(76_1076) 0
x(76_1077) 0
x(76_1078) 0
x(77_1079) 0
x(77_1080) 0
x(77_1081) 0
x(77_1082) 0
x(77_1083) 0
x(77_1084) 1
x(77_1085) 0
x(77_1086) 0
x(77_1087) 0
x(77_1088) 0
x(77_1089) 0
x(77_1090) 0
x(77_1091) 0
x(77_1092) 0
x(77_1093) 0
x(77_1094) 0
x(77_1095) 0
x(78_1096) 0
x(78_1097) 0
x(78_1098) 0
x(78_1099) 0
x(78_1100) 0
x(78_1101) 0
x(78_1102) 0
x(78_1103) 0
x(78_1104) 1
x(78_1105) 0
x(78_1106) 0
x(78_1107) 0
x(79_1108) 0
x(79_1109) 0
x(79_1110) 0
x(79_1111) 0
x(79_1112) 0
x(79_1113) 0
x(79_1114) 0
x(79_1115) 0
x(79_1116) 0
x(79_1117) 0
x(79_1118) 0
x(79_1119) 1
x(79_1120) 0
x(79_1121) 0
x(80_1122) 1
x(80_1123) 0
x(80_1124) 0
x(80_1125) 0
x(80_1126) 0
x(80_1127) 0
x(80_1128) 0
x(80_1129) 0
x(80_1130) 0
x(80_1131) 0
x(80_1132) 0
x(80_1133) 0
x(80_1134) 0
x(80_1135) 0
x(80_1136) 0
x(81_1137) 0
x(81_1138) 0
x(81_1139) 0
x(81_1140) 0
x(81_1141) 0
x(81_1142) 0
x(81_1143) 0
x(81_1144) 0
x(81_1145) 1
x(81_1146) 0
x(81_1147) 0
x(81_1148) 0
x(81_1149) 0
x(81_1150) 0
x(81_1151) 0
x(81_1152) 0
x(81_1153) 0
x(81_1154) 0
x(81_1155) 0
x(81_1156) 0
x(82_1157) 0
x(82_1158) 0
x(82_1159) 0
x(82_1160) 0
x(82_1161) 0
x(82_1162) 0
x(82_1163) 0
x(82_1164) 0
x(82_1165) 0
x(82_1166) 0
x(82_1167) 0
x(82_1168) 0
x(82_1169) 1
x(82_1170) 0
x(82_1171) 0
x(82_1172) 0
x(82_1173) 0
x(82_1174) 0
x(82_1175) 0
x(82_1176) 0
x(83_1177) 0
x(83_1178) 0
x(83_1179) 0
x(83_1180) 0
x(83_1181) 0
x(83_1182) 1
x(83_1183) 0
x(83_1184) 0
x(83_1185) 0
x(83_1186) 0
x(84_1187) 0
x(84_1188) 0
x(84_1189) 0
x(84_1190) 0
x(84_1191) 0
x(84_1192) 0
x(84_1193) 0
x(84_1194) 0
x(84_1195) 0
x(84_1196) 1
x(84_1197) 0
x(84_1198) 0
x_1_0 0
s_1_0 1.0566081034485251e+00
z_1_0 1
x_1_1 3.9464820142010285e+02
s_1_1 0
z_1_1 0.996053517985799
x_1_2 3.9882468104921281e+02
s_1_2 0
z_1_2 9.9601175318950785e-01
x_1_3 3.9859354295488447e+02
s_1_3 0
z_1_3 9.9601406457045116e-01
x_1_4 4.0005106523918221e+02
s_1_4 0
z_1_4 9.9599948934760818e-01
x_1_5 0
s_1_5 6.6818973192130215e-01
z_1_5 1
x_1_6 3.9574919464136474e+02
s_1_6 0
z_1_6 9.9604250805358641e-01
x_1_7 3.9998756347317249e+02
s_1_7 0
z_1_7 9.9600012436526830e-01
x_1_8 0
s_1_8 5.9090949911114876e-01
z_1_8 1
x_1_9 0
s_1_9 8.7600857845973223e-01
z_1_9 1
x_1_10 4.9999701346970585e+04
s_1_10 5.0000298653029422e+04
z_1_10 5.0000298653029418e-01
x_1_11 3.9621035168529488e+02
s_1_11 0
z_1_11 0.996037896483147
x_1_12 3.9618055999372154e+02
s_1_12 0
z_1_12 9.9603819440006280e-01
x_1_13 0
s_1_13 8.4203370891918894e-01
z_1_13 1
x_1_14 0
s_1_14 5.0701097241835669e-01
z_1_14 1
x_1_15 397.281614542022
s_1_15 0
z_1_15 9.9602718385457978e-01
x_1_16 0
s_1_16 9.2672351596411318e-01
z_1_16 1
x_1_17 0
s_1_17 2.0465714753954671e+00
z_1_17 1
x_1_18 0
s_1_18 1.3140628125402145e+00
z_1_18 1
x_1_19 0
s_1_19 1.0284094390099199e+00
z_1_19 1
x_1_20 3.9968493124470115e+02
s_1_20 0
z_1_20 0.996003150687553
x_1_21 3.9544242628500797e+02
s_1_21 0
z_1_21 9.9604557573714991e-01
x_1_22 3.9587739209922438e+02
s_1_22 0
z_1_22 9.9604122607900769e-01
x_1_23 3.9614166523772292e+02
s_1_23 0
z_1_23 9.9603858334762274e-01
x_1_24 3.9896053671604022e+02
s_1_24 0
z_1_24 9.9601039463283958e-01
x_1_25 3.9999803093634546e+02
s_1_25 0
z_1_25 9.9600001969063656e-01
x_1_26 3.9727639248875494e+02
s_1_26 0
z_1_26 9.9602723607511245e-01
x_1_27 392.176721925367
s_1_27 0
z_1_27 9.9607823278074636e-01
x_1_28 3.9823137728869915e+02
s_1_28 0
z_1_28 9.9601768622711306e-01
x_1_29 0
s_1_29 3.6910482353414409e-01
z_1_29 1
x_1_30 0
s_1_30 1.0806478986414731e+00
z_1_30 1
x_1_31 4.0008601014781743e+02
s_1_31 0
z_1_31 9.9599913989852185e-01
x_1_32 4.9999700979922847e+04
s_1_32 5.0000299020077153e+04
z_1_32 5.0000299020077155e-01
x_1_33 3.9807577027751540e+02
s_1_33 0
z_1_33 9.9601924229722483e-01
x_1_34 3.9907327678333968e+02
s_1_34 0
z_1_34 9.9600926723216665e-01
x_1_35 3.9744261706201360e+02
s_1_35 0
z_1_35 9.9602557382937984e-01
x_1_36 0
s_1_36 1.4794884781003930e+00
z_1_36 1
x_1_37 0
s_1_37 6.8687238519851235e-01
z_1_37 1
x_1_38 3.9561763576325029e+02
s_1_38 0
z_1_38 9.9604382364236754e-01
x_1_39 0
s_1_39 1.0256234719417989e+00
z_1_39 1
x_1_40 3.9946050823165569e+02
s_1_40 0
z_1_40 9.9600539491768347e-01
x_1_41 0
s_1_41 1.2633822064381093e+00
z_1_41 1
x_1_42 3.9760335287265480e+02
s_1_42 0
z_1_42 9.9602396647127345e-01
x_1_43 4.0050632816320285e+02
s_1_43 0
z_1_43 0.995994936718368
x_1_44 0
s_1_44 6.2521003300207667e-01
z_1_44 1
x_1_45 3.9651672433689237e+02
s_1_45 0
z_1_45 9.9603483275663107e-01
x_1_46 3.9651704700291157e+02
s_1_46 0
z_1_46 9.9603482952997091e-01
x_1_47 3.9704991577874171e+02
s_1_47 0
z_1_47 9.9602950084221253e-01
x_1_48 3.9640155599918216e+02
s_1_48 0
z_1_48 9.9603598444000818e-01
x_1_49 4.9999508996414312e+04
s_1_49 5.0000491003585688e+04
z_1_49 5.0000491003585690e-01
x_1_50 0
s_1_50 0.93987616506638
z_1_50 1
x_1_51 0
s_1_51 7.0788462675409392e-01
z_1_51 1
x_1_52 3.9711761072929949e+02
s_1_52 0
z_1_52 0.996028823892707
x_1_53 396.268765817862
s_1_53 0
z_1_53 9.9603731234182136e-01
x_1_54 0
s_1_54 8.7299091802560724e-01
z_1_54 1
x_1_55 3.9837106572698394e+02
s_1_55 0
z_1_55 9.9601628934273023e-01
x_1_56 4.9999782303515436e+04
s_1_56 5.0000217696484564e+04
z_1_56 5.0000217696484561e-01
x_1_57 0
s_1_57 5.7196052953077015e-01
z_1_57 1
x_1_58 3.9997820914350450e+02
s_1_58 0
z_1_58 0.996000217908565
x_1_59 0
s_1_59 8.8769862003391609e-01
z_1_59 1
x_1_60 3.9716233654180542e+02
s_1_60 0
z_1_60 0.996028376634582
x_1_61 3.9721345544885844e+02
s_1_61 0
z_1_61 9.9602786544551136e-01
x_1_62 398.827998653971
s_1_62 0
z_1_62 9.9601172001346028e-01
x_1_63 3.9812611024954822e+02
s_1_63 0
z_1_63 9.9601873889750459e-01
x_1_64 0
s_1_64 9.0800478667370044e-01
z_1_64 1
x_1_65 3.9734363005869091e+02
s_1_65 0
z_1_65 9.9602656369941311e-01
x_1_66 0
s_1_66 1.0351928400632460e+00
z_1_66 1
x_1_67 0
s_1_67 0.530945761303883
z_1_67 1
x_1_68 0
s_1_68 8.2535598811227828e-01
z_1_68 1
x_1_69 3.9913488885690458e+02
s_1_69 0
z_1_69 9.9600865111143089e-01
x_1_70 3.9791693783644587e+02
s_1_70 0
z_1_70 9.9602083062163549e-01
x_1_71 3.9668955748157168e+02
s_1_71 0
z_1_71 9.9603310442518433e-01
x_1_72 0
s_1_72 1.3202147147967480e+00
z_1_72 1
x_1_73 4.0034392849053256e+02
s_1_73 0
z_1_73 9.9599656071509468e-01
x_1_74 3.9816275966027752e+02
s_1_74 0
z_1_74 9.9601837240339719e-01
x_1_75 3.9793578504538164e+02
s_1_75 0
z_1_75 9.9602064214954622e-01
x_1_76 3.9084673561992531e+02
s_1_76 0
z_1_76 9.9609153264380068e-01
x_1_77 3.9981010987726040e+02
s_1_77 0
z_1_77 9.9600189890122737e-01
x_1_78 3.9926839312072843e+02
s_1_78 0
z_1_78 9.9600731606879267e-01
x_1_79 0
s_1_79 1.0495842761010863e+00
z_1_79 1
x_1_80 3.9874963187659159e+02
s_1_80 0
z_1_80 9.9601250368123406e-01
x_1_81 3.9961743263147946e+02
s_1_81 0
z_1_81 9.9600382567368517e-01
x_1_82 0
s_1_82 1.4978919907734962e+00
z_1_82 1
x_1_83 0
s_1_83 1.0574648439360317e+00
z_1_83 1
x_1_84 4.0044625412859023e+02
s_1_84 0
z_1_84 9.9599553745871416e-01
x_1_85 3.9544851312971150e+02
s_1_85 0
z_1_85 9.9604551486870285e-01
x_1_86 4.0078172454959713e+02
s_1_86 0
z_1_86 9.9599218275450407e-01
x_1_87 3.9836753903761564e+02
s_1_87 0
z_1_87 9.9601632460962386e-01
x_1_88 49999.6247781086
s_1_88 50000.3752218914
z_1_88 0.500003752218914
x_1_89 3.9661039095302112e+02
s_1_89 0
z_1_89 9.9603389609046977e-01
x_1_90 3.9975912310708372e+02
s_1_90 0
z_1_90 9.9600240876892920e-01
x_1_91 3.9910750005673617e+02
s_1_91 0
z_1_91 9.9600892499943261e-01
x_1_92 4.0071074043585395e+02
s_1_92 0
z_1_92 9.9599289259564139e-01
x_1_93 0
s_1_93 7.7772146940696985e-01
z_1_93 1
x_1_94 3.9934598991926759e+02
s_1_94 0
z_1_94 9.9600654010080736e-01
x_1_95 3.9866379463626072e+02
s_1_95 0
z_1_95 9.9601336205363744e-01
x_1_96 3.9696494126878679e+02
s_1_96 0
z_1_96 9.9603035058731215e-01
x_1_97 0
s_1_97 8.8387074695492629e-01
z_1_97 1
x_1_98 0
s_1_98 1.5735206445679069e+00
z_1_98 1
x_1_99 0
s_1_99 8.1178647949127480e-01
z_1_99 1
x_1_100 0
s_1_100 1.0952271242485949e+00
z_1_100 1
x_1_101 3.9751411700621247e+02
s_1_101 0
z_1_101 9.9602485882993785e-01
x_1_102 3.9609871195908636e+02
s_1_102 0
z_1_102 9.9603901288040919e-01
x_1_103 0
s_1_103 8.3092167665017769e-01
z_1_103 1
x_1_104 0
s_1_104 8.1051347930042539e-01
z_1_104 1
x_1_105 0
s_1_105 8.9707839506445453e-01
z_1_105 1
x_1_106 0
s_1_106 0.848045650520362
z_1_106 1
x_1_107 0
s_1_107 5.3916235375436372e-01
z_1_107 1
x_1_108 0
s_1_108 1.2186757334202412e+00
z_1_108 1
x_1_109 4.0002483681496233e+02
s_1_109 0
z_1_109 9.9599975163185039e-01
x_1_110 3.9633942487834429e+02
s_1_110 0
z_1_110 9.9603660575121655e-01
x_1_111 3.9675135457143188e+02
s_1_111 0
z_1_111 9.9603248645428566e-01
x_1_112 3.9844868900300935e+02
s_1_112 0
z_1_112 9.9601551310996994e-01
x_1_113 3.9898911096155643e+02
s_1_113 0
z_1_113 9.9601010889038444e-01
x_1_114 3.9708535746484995e+02
s_1_114 0
z_1_114 9.9602914642535145e-01
x_1_115 0
s_1_115 7.5419970320217544e-01
z_1_115 1
x_1_116 0
s_1_116 7.1151727320102509e-01
z_1_116 1
x_1_117 0
s_1_117 9.2775603112386307e-01
z_1_117 1
x_1_118 0
s_1_118 1.2557107281172648e+00
z_1_118 1
x_1_119 3.9927466609282419e+02
s_1_119 0
z_1_119 9.9600725333907170e-01
x_1_120 3.9822395915724337e+02
s_1_120 0
z_1_120 9.9601776040842760e-01
x_1_121 3.9737972186272964e+02
s_1_121 0
z_1_121 9.9602620278137266e-01
x_1_122 3.9890075219376013e+02
s_1_122 0
z_1_122 9.9601099247806246e-01
x_1_123 3.9964382654242218e+02
s_1_123 0
z_1_123 9.9600356173457583e-01
x_1_124 3.9802398490997439e+02
s_1_124 0
z_1_124 9.9601976015090021e-01
x_1_125 0
s_1_125 7.0282734918873757e-01
z_1_125 1
x_1_126 4.0075340513209812e+02
s_1_126 0
z_1_126 9.9599246594867907e-01
x_1_127 0
s_1_127 1.1264274528766691e+00
z_1_127 1
x_1_128 3.9991355683842266e+02
s_1_128 0
z_1_128 9.9600086443161584e-01
x_1_129 3.9934908057563007e+02
s_1_129 0
z_1_129 9.9600650919424372e-01
x_1_130 0
s_1_130 5.7346630847314373e-01
z_1_130 1
x_1_131 4.9999555538640219e+04
s_1_131 5.0000444461359788e+04
z_1_131 5.0000444461359783e-01
x_1_132 3.9620757806580514e+02
s_1_132 0
z_1_132 0.996037924219342
x_1_133 0
s_1_133 1.3761564574670047e+00
z_1_133 1
x_1_134 4.9999615010300266e+04
s_1_134 5.0000384989699727e+04
z_1_134 5.0000384989699731e-01
x_1_135 4.9999760461510719e+04
s_1_135 5.0000239538489281e+04
z_1_135 5.0000239538489277e-01
x_1_136 4.0045703388983384e+02
s_1_136 0
z_1_136 9.9599542966110166e-01
x_1_137 3.9959075977932662e+02
s_1_137 0
z_1_137 9.9600409240220678e-01
x_1_138 0
s_1_138 6.4529657061211765e-01
z_1_138 1
x_1_139 3.9548668020288460e+02
s_1_139 0
z_1_139 9.9604513319797117e-01
x_1_140 0
s_1_140 8.9309012061858084e-01
z_1_140 1
x_1_141 3.9792493143826141e+02
s_1_141 0
z_1_141 9.9602075068561735e-01
x_1_142 3.9285330283267831e+02
s_1_142 0
z_1_142 9.9607146697167326e-01
x_1_143 0
s_1_143 6.8224081647349522e-01
z_1_143 1
x_1_144 4.9999532096171031e+04
s_1_144 5.0000467903828976e+04
z_1_144 5.0000467903828971e-01
x_1_145 0
s_1_145 0.863613481487846
z_1_145 1
x_1_146 3.9668836469297821e+02
s_1_146 0
z_1_146 9.9603311635307024e-01
x_1_147 3.9691441411431879e+02
s_1_147 0
z_1_147 9.9603085585885687e-01
x_1_148 0
s_1_148 8.7376490494352765e-01
z_1_148 1
x_1_149 3.9755244564730674e+02
s_1_149 0
z_1_149 9.9602447554352691e-01
x_1_150 4.9999456603792205e+04
s_1_150 5.0000543396207795e+04
z_1_150 0.500005433962078
x_1_151 3.9907469681277871e+02
s_1_151 0
z_1_151 9.9600925303187227e-01
x_1_152 0
s_1_152 8.7241660162544576e-01
z_1_152 1
x_1_153 0
s_1_153 5.5061963144726178e-01
z_1_153 1
x_1_154 4.0010668855905533e+02
s_1_154 0
z_1_154 9.9599893311440946e-01
x_1_155 3.9791287675779313e+02
s_1_155 0
z_1_155 0.996020871232422
x_1_156 0
s_1_156 1.2734956765198149e+00
z_1_156 1
x_1_157 4.0021133559942245e+02
s_1_157 0
z_1_157 9.9599788664400579e-01
x_1_158 0
s_1_158 4.9156720275641419e-01
z_1_158 1
x_1_159 3.9869949674325471e+02
s_1_159 0
z_1_159 9.9601300503256740e-01
x_2_0 2.4917770443961708e+05
